cleaned_string_benchmarks/SV-COMP/17735_jbmc-regression_StaticCharMethods06_Main_12.smt2
(declare-const _string0 String)
(assert (bvsge ((_ int2bv 32) (str.len _string0)) #x00000001))
(assert (bvslt #x00000000 ((_ int2bv 32) (str.len _string0))))
(assert (not (= (str.at _string0 (ite (bvslt #x00000000 #x00000000) (- (bv2nat #x00000000)) (bv2nat #x00000000))) (str.at _string0 (ite (bvslt #x00000000 #x00000000) (- (bv2nat #x00000000)) (bv2nat #x00000000))))))
(assert (and (and true (<= -200 (str.len _string0))) (<= (str.len _string0) 200)))
(check-sat)
